treewidth/data/NonisotropicOrthogonalPolarGraph_3_5.gr
p tw 15 60
1 2
1 8
1 9
1 10
1 12
1 13
1 3
1 4
2 8
2 9
2 10
2 11
2 13
2 14
2 5
8 10
8 12
8 13
8 15
8 5
8 6
9 11
9 12
9 14
9 3
9 4
9 5
10 11
10 13
10 4
10 6
10 7
11 14
11 4
11 5
11 6
11 7
12 15
12 3
12 4
12 5
12 6
13 14
13 15
13 3
13 7
14 15
14 3
14 5
14 7
15 3
15 5
15 6
15 7
3 4
3 7
4 6
4 7
5 6
6 7
