treewidth/data/NonisotropicOrthogonalPolarGraph_3_5.td
c width = 10, time = 0.118296
s td 4 11 15
b 1 4 5 6 7 8 10 11 12 15
b 2 3 4 5 7 8 10 11 12 13 14 15
b 3 2 3 4 5 8 9 10 11 12 13 14
b 4 1 2 3 4 8 9 10 12 13
3 4
2 3
1 2
